9067
9312
10675
10675
10827
10827
10827
10827
11411
11411
11411
11411
11411
11411
11411
11411
11411
11421
11421
11638
11657
11657
11690
11690
11690
11690
11690
11690
11698
11698
12291
12291
12291
12291
12291
12291
12291
12291
12291
12291
12291
12291
12291
12291
12291
12291
12291
12291
12291
12291
12291
12291
12291
12291
12291
12291
12291
12291
12291
12291
12291
12291
12291
12291
12291
12291
12291
12291
12291
12291
12291
12291
12291
12291
12291
12291
12291
12291
12291
12291
12291
12291
12291
12291
12291
12291
12291
12291
12291
12291
12291
12291
12291
12291
12291
12291
12291
12291
12291
